Data path: /scratch/opt/lxu/CFLG/benchmarks/tree_A
Instance: treeA.350.35
Result path: /scratch/opt/lxu/CFLG/results/tree_A
Solver: Gurobi
Time limit: 7200
Formulation: LEFPAD
Cover: Large
julia --project=. src/main.jl /scratch/opt/lxu/CFLG/benchmarks/tree_A treeA.350.35 /scratch/opt/lxu/CFLG/results/tree_A Gurobi 7200 LEFPAD Large
The latest version of Julia in the `release` channel is 1.11.6+0.x64.linux.gnu. You currently have `1.11.4+0.x64.linux.gnu` installed. Run:

  juliaup update

in your terminal shell to install Julia 1.11.6+0.x64.linux.gnu and update the `release` channel to that version.
/scratch/opt/lxu/CFLG/benchmarks/tree_A Gurobi 7200.0 /scratch/opt/lxu/CFLG/results/tree_A treeA.350.35 LEFPAD Large
/scratch/opt/lxu/CFLG/benchmarks/tree_A/treeA.350.35

 read graph
data loaded

problem_graph/original graph: node: 350/350 edge: 384/384 dlt: 2.9854512643536775 break_avg_len: 1.4927256321768387 break_max_len: 1.997413463838551Vbar/V, Ebar/E(184, 350, 218, 384)
Set parameter TokenServer to value "solice01.zib.de"
Set parameter Threads to value 1
Set parameter OutputFlag to value 1
Gurobi Optimizer version 12.0.1 build v12.0.1rc0 (linux64 - "Debian GNU/Linux 12 (bookworm)")

CPU model: Intel(R) Xeon(R) Gold 5122 CPU @ 3.60GHz, instruction set [SSE2|AVX|AVX2|AVX512]
Thread count: 8 physical cores, 16 logical processors, using up to 1 threads

Non-default parameters:
Threads  1

Optimize a model with 546 rows, 870 columns and 1450 nonzeros
Model fingerprint: 0x7f53a5c7
Coefficient statistics:
  Matrix range     [1e+00, 1e+00]
  Objective range  [1e+00, 1e+00]
  Bounds range     [1e+00, 1e+00]
  RHS range        [1e+00, 1e+00]
Presolve removed 304 rows and 384 columns
Presolve time: 0.00s
Presolved: 242 rows, 486 columns, 762 nonzeros

Iteration    Objective       Primal Inf.    Dual Inf.      Time
       0    2.9000000e+02   1.340000e+02   0.000000e+00      0s
     104    1.8400000e+02   0.000000e+00   0.000000e+00      0s

Solved in 104 iterations and 0.00 seconds (0.00 work units)
Optimal objective  1.840000000e+02

User-callback calls 183, time in user-callback 0.00 sec
elapsed CPU time: 1.429399 seconds
Set parameter TokenServer to value "solice01.zib.de"
Set parameter Threads to value 1
Set parameter OutputFlag to value 1
Set parameter MIPGap to value 0.0001
Set parameter TimeLimit to value 7198.570601

 more cuts: false 2.9854512643536775 false
is_attach:trueformulation:LEFPAD0 290 256

 model loaded

Gurobi Optimizer version 12.0.1 build v12.0.1rc0 (linux64 - "Debian GNU/Linux 12 (bookworm)")

CPU model: Intel(R) Xeon(R) Gold 5122 CPU @ 3.60GHz, instruction set [SSE2|AVX|AVX2|AVX512]
Thread count: 8 physical cores, 16 logical processors, using up to 1 threads

Non-default parameters:
TimeLimit  7198.570601
Threads  1

Optimize a model with 11943 rows, 7574 columns and 33135 nonzeros
Model fingerprint: 0xcedc4c96
Variable types: 3787 continuous, 3787 integer (3787 binary)
Coefficient statistics:
  Matrix range     [6e-04, 3e+00]
  Objective range  [1e+00, 1e+00]
  Bounds range     [4e-02, 3e+00]
  RHS range        [4e-02, 7e+00]
Presolve removed 5888 rows and 2824 columns
Presolve time: 0.20s
Presolved: 6055 rows, 4750 columns, 20448 nonzeros
Variable types: 2155 continuous, 2595 integer (2595 binary)
Found heuristic solution: objective 245.0000000
Found heuristic solution: objective 149.0000000
Found heuristic solution: objective 136.0000000

Root relaxation: objective 6.775675e+01, 3159 iterations, 0.04 seconds (0.04 work units)

    Nodes    |    Current Node    |     Objective Bounds      |     Work
 Expl Unexpl |  Obj  Depth IntInf | Incumbent    BestBd   Gap | It/Node Time

     0     0   67.75675    0  340  136.00000   67.75675  50.2%     -    0s
H    0     0                     134.0000000   67.75675  49.4%     -    0s
H    0     0                      91.0000000   67.75675  25.5%     -    0s
     0     0   73.07129    0  349   91.00000   73.07129  19.7%     -    0s
H    0     0                      87.0000000   73.07129  16.0%     -    0s
     0     0   73.07129    0  337   87.00000   73.07129  16.0%     -    0s
     0     0   73.69511    0  394   87.00000   73.69511  15.3%     -    0s
     0     0   73.70325    0  378   87.00000   73.70325  15.3%     -    0s
     0     0   73.70326    0  368   87.00000   73.70326  15.3%     -    0s
     0     0   74.50000    0  317   87.00000   74.50000  14.4%     -    0s
H    0     0                      85.0000000   74.50000  12.4%     -    0s
H    0     0                      83.0000000   74.50000  10.2%     -    0s
     0     0   74.50000    0  340   83.00000   74.50000  10.2%     -    0s
     0     0   74.50000    0  322   83.00000   74.50000  10.2%     -    0s
     0     0   74.50277    0  350   83.00000   74.50277  10.2%     -    1s
     0     0   74.50277    0  353   83.00000   74.50277  10.2%     -    1s
     0     0   74.55877    0  269   83.00000   74.55877  10.2%     -    1s
H    0     0                      82.0000000   74.55877  9.07%     -    1s
     0     0   74.55893    0  262   82.00000   74.55893  9.07%     -    1s
     0     0   74.56193    0  249   82.00000   74.56193  9.07%     -    1s
     0     0   74.56193    0  261   82.00000   74.56193  9.07%     -    1s
     0     0   74.56307    0  282   82.00000   74.56307  9.07%     -    1s
     0     0   74.56307    0   66   82.00000   74.56307  9.07%     -    1s
H    0     0                      75.9999983   74.66307  1.76%     -    1s
     0     0   74.66307    0  147   76.00000   74.66307  1.76%     -    1s
     0     0   74.66307    0  147   76.00000   74.66307  1.76%     -    1s
     0     0   75.00000    0  137   76.00000   75.00000  1.32%     -    1s
     0     0   75.00000    0  137   76.00000   75.00000  1.32%     -    1s
     0     0   75.00000    0   91   76.00000   75.00000  1.32%     -    1s
     0     0   75.00000    0  106   76.00000   75.00000  1.32%     -    1s
     0     0   75.00000    0   94   76.00000   75.00000  1.32%     -    1s
     0     0 infeasible    0        76.00000   76.00000  0.00%     -    1s

Cutting planes:
  Gomory: 7
  Cover: 10
  Implied bound: 36
  Clique: 10
  MIR: 24
  Flow cover: 24
  RLT: 24
  Relax-and-lift: 2
  BQP: 7

Explored 1 nodes (19460 simplex iterations) in 1.79 seconds (1.12 work units)
Thread count was 1 (of 16 available processors)

Solution count 10: 76 76 82 ... 149

Optimal solution found (tolerance 1.00e-04)
Warning: max constraint violation (3.3977e-06) exceeds tolerance
Best objective 7.599999829722e+01, best bound 7.599999829722e+01, gap 0.0000%

User-callback calls 1581, time in user-callback 0.00 sec

 sepatime0 0 0
75.99999829721986
Stat(MathOptInterface.OPTIMAL, 75.99999829721986, 75.99999829721986, 0.0, 0.0, 1.429399, 1.7866151332855225, 1, Main.CFLG.LEFPAD, "", #undef)
